c generated by sgen
p cnf 113 236
-2 -3 -4 0
-1 -3 -4 0
-1 -2 -4 0
-1 -2 -3 0
-6 -7 -8 0
-5 -7 -8 0
-5 -6 -8 0
-5 -6 -7 0
-10 -11 -12 0
-9 -11 -12 0
-9 -10 -12 0
-9 -10 -11 0
-14 -15 -16 0
-13 -15 -16 0
-13 -14 -16 0
-13 -14 -15 0
-18 -19 -20 0
-17 -19 -20 0
-17 -18 -20 0
-17 -18 -19 0
-22 -23 -24 0
-21 -23 -24 0
-21 -22 -24 0
-21 -22 -23 0
-26 -27 -28 0
-25 -27 -28 0
-25 -26 -28 0
-25 -26 -27 0
-30 -31 -32 0
-29 -31 -32 0
-29 -30 -32 0
-29 -30 -31 0
-34 -35 -36 0
-33 -35 -36 0
-33 -34 -36 0
-33 -34 -35 0
-38 -39 -40 0
-37 -39 -40 0
-37 -38 -40 0
-37 -38 -39 0
-42 -43 -44 0
-41 -43 -44 0
-41 -42 -44 0
-41 -42 -43 0
-46 -47 -48 0
-45 -47 -48 0
-45 -46 -48 0
-45 -46 -47 0
-50 -51 -52 0
-49 -51 -52 0
-49 -50 -52 0
-49 -50 -51 0
-54 -55 -56 0
-53 -55 -56 0
-53 -54 -56 0
-53 -54 -55 0
-58 -59 -60 0
-57 -59 -60 0
-57 -58 -60 0
-57 -58 -59 0
-62 -63 -64 0
-61 -63 -64 0
-61 -62 -64 0
-61 -62 -63 0
-66 -67 -68 0
-65 -67 -68 0
-65 -66 -68 0
-65 -66 -67 0
-70 -71 -72 0
-69 -71 -72 0
-69 -70 -72 0
-69 -70 -71 0
-74 -75 -76 0
-73 -75 -76 0
-73 -74 -76 0
-73 -74 -75 0
-78 -79 -80 0
-77 -79 -80 0
-77 -78 -80 0
-77 -78 -79 0
-82 -83 -84 0
-81 -83 -84 0
-81 -82 -84 0
-81 -82 -83 0
-86 -87 -88 0
-85 -87 -88 0
-85 -86 -88 0
-85 -86 -87 0
-90 -91 -92 0
-89 -91 -92 0
-89 -90 -92 0
-89 -90 -91 0
-94 -95 -96 0
-93 -95 -96 0
-93 -94 -96 0
-93 -94 -95 0
-98 -99 -100 0
-97 -99 -100 0
-97 -98 -100 0
-97 -98 -99 0
-102 -103 -104 0
-101 -103 -104 0
-101 -102 -104 0
-101 -102 -103 0
-106 -107 -108 0
-105 -107 -108 0
-105 -106 -108 0
-105 -106 -107 0
-109 -110 -111 0
-109 -110 -112 0
-109 -110 -113 0
-109 -111 -112 0
-109 -111 -113 0
-109 -112 -113 0
-110 -111 -112 0
-110 -111 -113 0
-110 -112 -113 0
-111 -112 -113 0
49 74 101 0
83 74 101 0
83 49 101 0
83 49 74 0
44 23 27 0
46 23 27 0
46 44 27 0
46 44 23 0
78 42 15 0
4 42 15 0
4 78 15 0
4 78 42 0
20 95 45 0
61 95 45 0
61 20 45 0
61 20 95 0
39 43 100 0
36 43 100 0
36 39 100 0
36 39 43 0
6 93 108 0
13 93 108 0
13 6 108 0
13 6 93 0
32 21 19 0
59 21 19 0
59 32 19 0
59 32 21 0
77 91 110 0
30 91 110 0
30 77 110 0
30 77 91 0
48 70 109 0
103 70 109 0
103 48 109 0
103 48 70 0
96 113 84 0
57 113 84 0
57 96 84 0
57 96 113 0
35 26 2 0
62 26 2 0
62 35 2 0
62 35 26 0
1 88 24 0
89 88 24 0
89 1 24 0
89 1 88 0
99 72 3 0
60 72 3 0
60 99 3 0
60 99 72 0
34 47 68 0
80 47 68 0
80 34 68 0
80 34 47 0
107 25 76 0
79 25 76 0
79 107 76 0
79 107 25 0
33 104 85 0
53 104 85 0
53 33 85 0
53 33 104 0
67 55 37 0
64 55 37 0
64 67 37 0
64 67 55 0
10 73 90 0
18 73 90 0
18 10 90 0
18 10 73 0
41 56 82 0
106 56 82 0
106 41 82 0
106 41 56 0
69 87 66 0
94 87 66 0
94 69 66 0
94 69 87 0
75 65 7 0
22 65 7 0
22 75 7 0
22 75 65 0
52 98 92 0
63 98 92 0
63 52 92 0
63 52 98 0
51 17 54 0
5 17 54 0
5 51 54 0
5 51 17 0
86 9 8 0
40 9 8 0
40 86 8 0
40 86 9 0
11 105 97 0
112 105 97 0
112 11 97 0
112 11 105 0
12 29 58 0
102 29 58 0
102 12 58 0
102 12 29 0
38 28 16 0
111 28 16 0
111 38 16 0
111 38 28 0
31 71 14 0
31 71 81 0
31 71 50 0
31 14 81 0
31 14 50 0
31 81 50 0
71 14 81 0
71 14 50 0
71 81 50 0
14 81 50 0
